db/data/15030644822089446310091277972443830507.z3.out
-------------------
2500.225191615
